[TITLE]
;;Project Title/Notes
Rani ki Vav Stepwell
7-story inverted temple stepwell with 500+ sculptures
Civilization: Medieval India (Gujarat)
Period: 1063 CE
Engineering Notes: N/A

[OPTIONS]
;;Option             Value
FLOW_UNITS           CMS
INFILTRATION         HORTON
FLOW_ROUTING         DYNWAVE
LINK_OFFSETS         DEPTH
MIN_SLOPE            0.0001
ALLOW_PONDING        NO
SKIP_STEADY_STATE    NO

START_DATE           01/01/2024
START_TIME           00:00:00
REPORT_START_DATE    01/01/2024
REPORT_START_TIME    00:00:00
END_DATE             01/02/2024
END_TIME             00:00:00
SWEEP_START          01/01
SWEEP_END            12/31
DRY_DAYS             0
REPORT_STEP          00:05:00
WET_STEP             00:05:00
DRY_STEP             01:00:00
ROUTING_STEP         0:00:30
RULE_STEP            00:00:00

INERTIAL_DAMPING     PARTIAL
NORMAL_FLOW_LIMITED  BOTH
FORCE_MAIN_EQUATION  H-W
VARIABLE_STEP        0.75
LENGTHENING_STEP     0
MIN_SURFAREA         1.14
MAX_TRIALS           8
HEAD_TOLERANCE       0.0015
SYS_FLOW_TOL         5
LAT_FLOW_TOL         5
MINIMUM_STEP         0.5
THREADS              1

[EVAPORATION]
;;Data Source    Parameters
;;-------------- ----------------
CONSTANT         0.0
DRY_ONLY         NO

[JUNCTIONS]
;;Name           Elevation  MaxDepth   InitDepth  SurDepth   Aponded   
;;-------------- ---------- ---------- ---------- ---------- ----------
J1               10.0       2          0          0          0         
J2               9.9904       2          0          0          0         

[OUTFALLS]
;;Name           Elevation  Type       Stage Data       Gated    Route To        
;;-------------- ---------- ---------- ---------------- -------- ----------------
Out1             9.9808       FREE                        NO                       

[CONDUITS]
;;Name           From Node        To Node          Length     Roughness  InOffset   OutOffset  InitFlow   MaxFlow   
;;-------------- ---------------- ---------------- ---------- ---------- ---------- ---------- ---------- ----------
C1               J1               J2               64        0.02       0          0          1          0         
C2               J2               Out1             32        0.02       0          0          1          0         

[XSECTIONS]
;;Link           Shape        Geom1            Geom2      Geom3      Geom4      Barrels    Culvert   
;;-------------- ------------ ---------------- ---------- ---------- ---------- ---------- ----------
C1               RECT_OPEN    1              2          0          0          1                    
C2               RECT_OPEN    1              2          0          0          1                    

[INFLOWS]
;;Node           Constituent      Time Series      Type     Mfactor  Sfactor  Baseline Pattern
;;-------------- ---------------- ---------------- -------- -------- -------- -------- --------
J1               FLOW             ""               FLOW     1.0      1.0      1      

[TIMESERIES]
;;Name           Date       Time       Value     
;;-------------- ---------- ---------- ----------

[REPORT]
;;Reporting Options
SUBCATCHMENTS ALL
NODES ALL
LINKS ALL

[TAGS]

[MAP]
DIMENSIONS 0.000 0.000 10000.000 10000.000
Units      Meters

[COORDINATES]
;;Node           X-Coord            Y-Coord           
;;-------------- ------------------ ------------------
J1               1000.000           5000.000          
J2               5000.000           5000.000          
Out1             9000.000           5000.000          

[VERTICES]
;;Link           X-Coord            Y-Coord           
;;-------------- ------------------ ------------------

[LABELS]
;;X-Coord          Y-Coord            Label           
1000.000           6000.000           "Rani ki Vav Stepwell"             

[BACKDROP]
FILE       ""
DIMENSIONS 0.000 0.000 10000.000 10000.000
